NAME : rnd7_50.tsp.tsp.opt.tour
TYPE : TOUR
DIMENSION : 50
TOUR_SECTION
1
45
46
10
50
11
21
25
40
30
43
2
7
48
23
34
12
49
36
31
42
37
29
5
4
39
35
32
26
27
41
38
44
14
6
8
33
9
16
15
19
47
24
28
3
17
18
13
22
20
-1